DIMACS2
40 22 23 34 97 48 58 20 13 91 85 124 140 18 36 10 63 72 89 141 31 44 38 125 79 104 15 94 70 49 46 17 98 14 25 4 152 29 82 133 41
p edge 160 1221
e 0 38 21.0
e 0 42 1.0
e 0 21 1.0
e 0 90 1.0
e 0 31 22.0
e 0 30 1.0
e 0 119 1.0
e 0 147 1.0
e 1 78 1.0
e 1 146 1.0
e 1 136 1.0
e 1 15 48.0
e 1 84 1.0
e 1 48 29.0
e 1 73 1.0
e 1 75 1.0
e 2 62 1.0
e 2 147 1.0
e 2 4 29.0
e 2 74 1.0
e 2 146 1.0
e 2 60 1.0
e 2 116 1.0
e 2 148 1.0
e 3 98 49.0
e 3 128 1.0
e 3 142 1.0
e 3 33 1.0
e 3 60 1.0
e 3 105 1.0
e 3 5 1.0
e 3 84 1.0
e 4 120 12.0
e 4 82 4.0
e 4 21 29.0
e 4 144 12.0
e 4 29 15.0
e 4 68 18.0
e 4 46 16.0
e 4 121 43.0
e 5 74 1.0
e 5 138 1.0
e 5 148 1.0
e 5 136 3.0
e 5 133 47.0
e 5 96 1.0
e 5 125 40.0
e 5 146 1.0
e 6 151 1.0
e 6 10 7.0
e 6 103 1.0
e 6 52 1.0
e 6 110 2.0
e 6 0 1.0
e 6 53 1.0
e 6 139 1.0
e 7 132 1.0
e 7 58 41.0
e 7 82 12.0
e 7 65 1.0
e 7 78 1.0
e 7 86 1.0
e 7 5 1.0
e 7 47 1.0
e 8 151 2.0
e 8 42 1.0
e 8 80 2.0
e 8 45 1.0
e 8 37 2.0
e 8 90 1.0
e 8 5 1.0
e 8 54 2.0
e 9 157 1.0
e 9 17 26.0
e 9 141 37.0
e 9 35 1.0
e 9 112 1.0
e 9 120 1.0
e 9 84 1.0
e 9 134 1.0
e 10 3 31.0
e 10 29 28.0
e 10 154 42.0
e 10 122 8.0
e 10 104 10.0
e 10 145 3.0
e 10 27 45.0
e 10 131 13.0
e 11 80 1.0
e 11 30 1.0
e 11 124 45.0
e 11 139 1.0
e 11 28 1.0
e 11 26 1.0
e 11 34 31.0
e 11 16 1.0
e 12 114 1.0
e 12 63 5.0
e 12 101 1.0
e 12 77 1.0
e 12 49 37.0
e 12 68 1.0
e 12 113 1.0
e 12 21 1.0
e 13 52 47.0
e 13 107 44.0
e 13 51 41.0
e 13 149 42.0
e 13 7 15.0
e 13 57 28.0
e 13 108 3.0
e 13 59 33.0
e 14 21 24.0
e 14 87 40.0
e 14 102 21.0
e 14 52 23.0
e 14 35 28.0
e 14 57 32.0
e 14 147 43.0
e 14 29 15.0
e 15 124 18.0
e 15 50 20.0
e 15 123 29.0
e 15 58 16.0
e 15 109 13.0
e 15 18 26.0
e 16 74 1.0
e 16 86 1.0
e 16 59 1.0
e 16 88 1.0
e 16 135 1.0
e 16 13 8.0
e 16 149 1.0
e 16 76 1.0
e 17 132 16.0
e 17 53 36.0
e 17 69 33.0
e 17 58 20.0
e 17 4 8.0
e 17 133 28.0
e 17 64 17.0
e 17 1 41.0
e 18 156 13.0
e 18 113 14.0
e 18 35 45.0
e 18 4 49.0
e 18 127 12.0
e 18 73 3.0
e 18 61 49.0
e 18 38 44.0
e 19 142 1.0
e 19 66 1.0
e 19 15 7.0
e 19 127 1.0
e 19 69 1.0
e 19 114 1.0
e 19 9 1.0
e 20 38 31.0
e 20 87 26.0
e 20 88 18.0
e 20 141 48.0
e 20 152 42.0
e 20 144 46.0
e 20 83 10.0
e 20 52 10.0
e 21 49 40.0
e 21 147 1.0
e 21 111 1.0
e 21 142 1.0
e 21 152 36.0
e 21 28 1.0
e 21 150 1.0
e 21 156 1.0
e 22 152 46.0
e 22 148 36.0
e 22 112 25.0
e 22 135 39.0
e 22 98 20.0
e 22 64 36.0
e 22 18 1.0
e 22 101 22.0
e 23 127 48.0
e 23 95 7.0
e 23 63 1.0
e 23 74 34.0
e 23 70 13.0
e 23 61 11.0
e 23 104 11.0
e 23 80 34.0
e 24 32 1.0
e 24 153 1.0
e 24 3 1.0
e 24 41 44.0
e 24 132 1.0
e 24 89 36.0
e 24 111 1.0
e 24 15 14.0
e 25 44 29.0
e 25 22 3.0
e 25 137 40.0
e 25 7 33.0
e 25 134 3.0
e 25 59 11.0
e 25 138 42.0
e 25 20 40.0
e 26 102 1.0
e 26 154 1.0
e 26 137 1.0
e 26 150 1.0
e 26 32 1.0
e 26 28 1.0
e 26 22 45.0
e 26 138 1.0
e 27 8 2.0
e 27 36 46.0
e 27 106 1.0
e 27 62 1.0
e 27 140 18.0
e 27 139 1.0
e 27 66 1.0
e 28 69 1.0
e 28 65 1.0
e 28 60 2.0
e 28 137 1.0
e 28 75 1.0
e 28 50 1.0
e 28 106 1.0
e 28 31 24.0
e 29 81 7.0
e 29 156 3.0
e 29 25 12.0
e 29 61 7.0
e 29 104 4.0
e 29 51 2.0
e 29 7 7.0
e 29 105 40.0
e 30 26 1.0
e 30 157 1.0
e 30 76 1.0
e 30 93 1.0
e 30 98 23.0
e 30 48 8.0
e 30 120 1.0
e 30 124 45.0
e 31 14 49.0
e 31 157 43.0
e 31 15 41.0
e 31 58 47.0
e 31 77 30.0
e 31 82 10.0
e 31 90 8.0
e 32 62 1.0
e 32 59 1.0
e 32 97 44.0
e 32 126 2.0
e 32 150 1.0
e 32 143 1.0
e 32 35 1.0
e 32 48 22.0
e 33 1 1.0
e 33 83 1.0
e 33 15 34.0
e 33 119 1.0
e 33 85 16.0
e 33 68 1.0
e 33 39 1.0
e 33 71 1.0
e 34 106 1.0
e 34 51 8.0
e 34 71 36.0
e 34 98 27.0
e 34 143 41.0
e 34 29 34.0
e 34 99 34.0
e 34 30 5.0
e 35 155 1.0
e 35 45 1.0
e 35 142 1.0
e 35 66 1.0
e 35 53 1.0
e 35 34 46.0
e 35 46 2.0
e 35 152 27.0
e 36 43 8.0
e 36 11 48.0
e 36 16 30.0
e 36 32 36.0
e 36 150 5.0
e 36 86 20.0
e 36 105 13.0
e 36 145 7.0
e 37 53 1.0
e 37 97 11.0
e 37 154 1.0
e 37 121 1.0
e 37 105 1.0
e 37 82 47.0
e 37 139 1.0
e 38 140 4.0
e 38 130 27.0
e 38 10 24.0
e 38 97 16.0
e 38 49 11.0
e 38 65 33.0
e 38 95 41.0
e 39 77 1.0
e 39 27 1.0
e 39 2 1.0
e 39 68 1.0
e 39 56 1.0
e 39 108 1.0
e 39 74 1.0
e 40 121 1.0
e 40 16 1.0
e 40 157 1.0
e 40 106 1.0
e 40 71 1.0
e 40 12 1.0
e 40 0 1.0
e 40 129 2.0
e 41 112 18.0
e 41 147 34.0
e 41 110 26.0
e 41 42 19.0
e 41 85 47.0
e 41 53 38.0
e 41 21 18.0
e 41 108 7.0
e 42 92 1.0
e 42 99 1.0
e 42 1 1.0
e 42 126 2.0
e 42 77 1.0
e 42 72 12.0
e 42 71 1.0
e 43 100 1.0
e 43 101 1.0
e 43 53 2.0
e 43 5 1.0
e 43 27 1.0
e 43 142 1.0
e 43 93 1.0
e 43 145 1.0
e 44 75 18.0
e 44 64 3.0
e 44 110 34.0
e 44 71 10.0
e 44 84 30.0
e 44 65 6.0
e 44 131 11.0
e 44 35 22.0
e 45 105 1.0
e 45 48 25.0
e 45 143 1.0
e 45 115 1.0
e 45 1 1.0
e 45 55 1.0
e 45 135 1.0
e 45 84 1.0
e 46 93 8.0
e 46 150 44.0
e 46 73 4.0
e 46 55 22.0
e 46 80 37.0
e 46 64 21.0
e 46 87 12.0
e 46 124 40.0
e 47 158 1.0
e 47 12 1.0
e 47 100 1.0
e 47 43 2.0
e 47 133 8.0
e 47 48 12.0
e 47 127 1.0
e 48 69 43.0
e 48 5 25.0
e 48 118 10.0
e 48 12 29.0
e 48 148 33.0
e 48 17 8.0
e 49 136 2.0
e 49 89 37.0
e 49 69 17.0
e 49 56 28.0
e 49 143 14.0
e 49 88 26.0
e 49 132 4.0
e 49 98 23.0
e 50 90 1.0
e 50 140 19.0
e 50 107 1.0
e 50 97 17.0
e 50 142 1.0
e 50 101 1.0
e 50 124 38.0
e 50 44 29.0
e 51 130 1.0
e 51 55 1.0
e 51 127 1.0
e 51 124 43.0
e 51 90 1.0
e 51 134 1.0
e 51 122 1.0
e 51 139 1.0
e 52 33 1.0
e 52 72 48.0
e 52 9 1.0
e 52 143 1.0
e 52 62 1.0
e 52 24 1.0
e 52 141 28.0
e 53 103 1.0
e 53 114 1.0
e 53 155 1.0
e 53 18 48.0
e 53 134 1.0
e 53 109 1.0
e 53 136 3.0
e 54 29 45.0
e 54 11 1.0
e 54 92 1.0
e 54 147 1.0
e 54 150 1.0
e 54 133 15.0
e 54 66 1.0
e 54 12 1.0
e 55 14 25.0
e 55 33 1.0
e 55 30 1.0
e 55 7 1.0
e 55 52 1.0
e 55 27 1.0
e 55 63 47.0
e 55 28 1.0
e 56 8 2.0
e 56 113 1.0
e 56 98 25.0
e 56 0 1.0
e 56 15 34.0
e 56 42 1.0
e 56 135 1.0
e 56 71 1.0
e 57 7 1.0
e 57 78 1.0
e 57 71 1.0
e 57 139 2.0
e 57 63 33.0
e 57 60 1.0
e 57 52 1.0
e 57 87 1.0
e 58 27 17.0
e 58 127 33.0
e 58 122 21.0
e 58 32 35.0
e 58 33 10.0
e 58 157 32.0
e 58 146 36.0
e 59 69 1.0
e 59 26 1.0
e 59 125 17.0
e 59 79 5.0
e 59 145 1.0
e 59 158 1.0
e 59 112 1.0
e 59 70 1.0
e 60 9 1.0
e 60 70 30.0
e 60 21 1.0
e 60 121 2.0
e 60 103 1.0
e 60 157 2.0
e 60 55 2.0
e 61 45 1.0
e 61 31 45.0
e 61 96 1.0
e 61 98 38.0
e 61 117 1.0
e 61 129 1.0
e 61 130 1.0
e 62 70 24.0
e 62 148 1.0
e 62 155 1.0
e 62 98 44.0
e 62 110 1.0
e 62 46 37.0
e 62 39 2.0
e 62 38 2.0
e 63 67 20.0
e 63 25 49.0
e 63 75 14.0
e 63 92 40.0
e 63 115 10.0
e 63 135 24.0
e 63 5 33.0
e 63 62 27.0
e 64 108 1.0
e 64 68 1.0
e 64 50 1.0
e 64 57 1.0
e 64 25 20.0
e 64 84 1.0
e 64 41 29.0
e 65 88 1.0
e 65 22 7.0
e 65 144 1.0
e 65 155 1.0
e 65 34 24.0
e 65 68 1.0
e 65 75 1.0
e 65 8 1.0
e 66 3 1.0
e 66 75 1.0
e 66 151 1.0
e 66 41 45.0
e 66 85 1.0
e 66 33 1.0
e 66 92 1.0
e 67 8 2.0
e 67 22 31.0
e 67 76 1.0
e 67 101 1.0
e 67 44 24.0
e 67 1 1.0
e 67 122 1.0
e 67 155 1.0
e 68 108 1.0
e 68 118 1.0
e 68 6 1.0
e 68 29 32.0
e 68 150 1.0
e 68 55 1.0
e 68 103 1.0
e 68 18 20.0
e 69 75 1.0
e 69 5 1.0
e 69 40 1.0
e 69 12 1.0
e 69 27 1.0
e 69 128 1.0
e 69 119 1.0
e 70 45 1.0
e 70 133 5.0
e 70 141 10.0
e 70 17 39.0
e 70 30 7.0
e 70 61 22.0
e 70 125 17.0
e 70 31 37.0
e 71 97 10.0
e 71 79 43.0
e 71 125 25.0
e 71 135 1.0
e 71 109 1.0
e 71 157 1.0
e 71 116 1.0
e 71 26 1.0
e 72 127 48.0
e 72 28 33.0
e 72 36 29.0
e 72 53 1.0
e 72 91 5.0
e 72 149 13.0
e 72 51 19.0
e 72 5 23.0
e 73 145 1.0
e 73 20 14.0
e 73 34 35.0
e 73 90 2.0
e 73 60 2.0
e 73 38 44.0
e 73 50 1.0
e 73 11 1.0
e 74 83 1.0
e 74 140 3.0
e 74 136 2.0
e 74 9 1.0
e 74 65 1.0
e 74 119 1.0
e 74 101 1.0
e 74 146 1.0
e 75 91 49.0
e 75 49 22.0
e 75 108 1.0
e 75 111 1.0
e 75 9 1.0
e 75 29 45.0
e 75 95 1.0
e 75 54 1.0
e 76 10 9.0
e 76 89 6.0
e 76 112 1.0
e 76 38 12.0
e 76 71 1.0
e 76 144 1.0
e 77 117 1.0
e 77 56 1.0
e 77 147 1.0
e 77 120 1.0
e 77 100 1.0
e 77 26 1.0
e 77 156 1.0
e 77 50 1.0
e 78 155 1.0
e 78 154 1.0
e 78 35 1.0
e 78 44 32.0
e 78 133 29.0
e 78 149 1.0
e 78 53 1.0
e 78 147 1.0
e 79 76 9.0
e 79 94 6.0
e 79 142 35.0
e 79 25 3.0
e 79 109 42.0
e 79 112 22.0
e 79 38 28.0
e 79 124 28.0
e 80 141 7.0
e 80 66 1.0
e 80 19 1.0
e 80 79 43.0
e 80 103 1.0
e 80 6 1.0
e 80 100 1.0
e 81 26 1.0
e 81 71 1.0
e 81 76 1.0
e 81 104 28.0
e 81 126 1.0
e 81 110 1.0
e 81 39 1.0
e 81 12 1.0
e 82 62 3.0
e 82 27 35.0
e 82 98 47.0
e 82 94 32.0
e 82 99 41.0
e 82 95 9.0
e 82 122 21.0
e 82 87 19.0
e 83 38 38.0
e 83 84 1.0
e 83 133 14.0
e 83 15 44.0
e 83 149 1.0
e 83 25 29.0
e 83 92 1.0
e 83 139 2.0
e 84 145 1.0
e 84 61 1.0
e 84 124 32.0
e 84 118 1.0
e 84 95 1.0
e 84 47 1.0
e 85 65 8.0
e 85 25 42.0
e 85 87 49.0
e 85 99 26.0
e 85 68 25.0
e 85 18 14.0
e 85 55 1.0
e 86 66 1.0
e 86 156 1.0
e 86 2 1.0
e 86 132 1.0
e 86 93 1.0
e 86 145 1.0
e 86 155 1.0
e 87 29 5.0
e 87 103 1.0
e 87 123 1.0
e 87 65 1.0
e 87 99 1.0
e 87 67 1.0
e 87 24 1.0
e 87 41 48.0
e 88 99 1.0
e 88 134 1.0
e 88 40 1.0
e 88 70 7.0
e 88 36 1.0
e 88 121 1.0
e 89 132 22.0
e 89 53 31.0
e 89 113 1.0
e 89 127 7.0
e 89 142 32.0
e 89 83 27.0
e 89 115 42.0
e 90 146 1.0
e 90 119 2.0
e 90 32 2.0
e 90 83 1.0
e 90 19 2.0
e 90 158 1.0
e 90 137 1.0
e 90 156 1.0
e 91 66 10.0
e 91 113 23.0
e 91 34 27.0
e 91 100 43.0
e 91 115 49.0
e 91 96 23.0
e 91 145 7.0
e 91 83 19.0
e 92 9 1.0
e 92 141 9.0
e 92 115 1.0
e 92 75 1.0
e 92 22 49.0
e 92 24 1.0
e 92 29 27.0
e 93 122 1.0
e 93 147 1.0
e 93 37 1.0
e 93 6 1.0
e 93 23 48.0
e 93 141 36.0
e 93 77 1.0
e 93 21 1.0
e 94 71 31.0
e 94 151 13.0
e 94 7 16.0
e 94 53 20.0
e 94 116 16.0
e 94 11 40.0
e 94 77 6.0
e 94 121 21.0
e 95 106 1.0
e 95 31 8.0
e 95 77 1.0
e 95 71 1.0
e 95 115 1.0
e 95 20 48.0
e 95 117 1.0
e 95 125 4.0
e 96 144 1.0
e 96 58 22.0
e 96 24 1.0
e 96 128 1.0
e 96 124 8.0
e 96 78 1.0
e 96 103 1.0
e 96 23 14.0
e 97 0 8.0
e 97 150 23.0
e 97 142 36.0
e 97 19 23.0
e 97 87 49.0
e 97 127 24.0
e 97 104 3.0
e 97 29 17.0
e 98 149 46.0
e 98 39 48.0
e 98 5 20.0
e 98 69 20.0
e 98 133 20.0
e 98 137 22.0
e 98 156 46.0
e 98 94 15.0
e 99 129 1.0
e 99 64 1.0
e 99 120 1.0
e 99 152 37.0
e 99 93 1.0
e 99 48 48.0
e 99 51 1.0
e 99 151 1.0
e 100 133 20.0
e 100 83 1.0
e 100 58 31.0
e 100 89 23.0
e 100 85 35.0
e 100 45 1.0
e 100 32 1.0
e 100 141 41.0
e 101 42 1.0
e 101 36 45.0
e 101 146 1.0
e 101 10 42.0
e 101 38 34.0
e 101 82 2.0
e 101 27 1.0
e 102 79 25.0
e 102 116 1.0
e 102 87 1.0
e 102 85 1.0
e 102 107 1.0
e 102 137 1.0
e 102 31 3.0
e 102 145 1.0
e 103 124 26.0
e 103 72 23.0
e 103 107 1.0
e 103 116 1.0
e 103 64 1.0
e 103 108 1.0
e 103 122 1.0
e 103 13 14.0
e 104 147 30.0
e 104 59 45.0
e 104 112 4.0
e 104 22 4.0
e 104 134 15.0
e 104 135 42.0
e 104 2 3.0
e 104 8 41.0
e 105 19 1.0
e 105 89 9.0
e 105 12 1.0
e 105 141 15.0
e 105 127 1.0
e 105 136 1.0
e 105 101 1.0
e 105 119 1.0
e 106 154 1.0
e 106 153 1.0
e 106 23 34.0
e 106 96 1.0
e 106 117 1.0
e 106 148 1.0
e 106 127 1.0
e 107 83 1.0
e 107 56 1.0
e 107 66 1.0
e 107 42 1.0
e 107 98 35.0
e 107 62 1.0
e 107 156 1.0
e 108 158 1.0
e 108 8 1.0
e 108 25 32.0
e 108 53 1.0
e 108 84 1.0
e 108 91 42.0
e 108 138 1.0
e 108 131 1.0
e 109 38 21.0
e 109 102 1.0
e 109 1 1.0
e 109 144 1.0
e 109 85 22.0
e 109 18 18.0
e 109 2 1.0
e 109 82 39.0
e 110 112 1.0
e 110 91 38.0
e 110 49 49.0
e 110 30 1.0
e 110 117 1.0
e 110 120 1.0
e 110 12 1.0
e 111 74 1.0
e 111 100 1.0
e 111 27 1.0
e 111 13 6.0
e 111 23 7.0
e 111 15 43.0
e 111 90 1.0
e 111 124 37.0
e 112 115 1.0
e 112 39 1.0
e 112 113 1.0
e 112 42 1.0
e 112 85 22.0
e 112 92 1.0
e 112 136 2.0
e 112 105 1.0
e 113 76 1.0
e 113 97 48.0
e 113 138 1.0
e 113 11 1.0
e 113 29 31.0
e 113 63 27.0
e 113 146 1.0
e 114 83 1.0
e 114 6 2.0
e 114 62 1.0
e 114 42 1.0
e 114 52 1.0
e 114 104 8.0
e 114 61 1.0
e 114 145 1.0
e 115 152 25.0
e 115 119 1.0
e 115 27 1.0
e 115 26 1.0
e 115 54 1.0
e 115 41 1.0
e 115 80 1.0
e 116 111 1.0
e 116 4 34.0
e 116 97 48.0
e 116 104 19.0
e 116 24 1.0
e 116 44 41.0
e 116 156 1.0
e 117 70 13.0
e 117 107 1.0
e 117 50 1.0
e 117 3 1.0
e 117 116 1.0
e 117 98 13.0
e 117 31 28.0
e 118 47 1.0
e 118 61 1.0
e 118 143 1.0
e 118 146 1.0
e 118 31 40.0
e 118 0 1.0
e 118 75 1.0
e 118 121 1.0
e 119 132 1.0
e 119 22 25.0
e 119 91 41.0
e 119 137 1.0
e 119 15 11.0
e 119 61 1.0
e 119 66 1.0
e 119 96 1.0
e 120 74 1.0
e 120 36 19.0
e 120 90 1.0
e 120 114 1.0
e 120 35 1.0
e 120 104 4.0
e 120 78 1.0
e 121 78 1.0
e 121 95 1.0
e 121 92 1.0
e 121 89 22.0
e 121 117 1.0
e 121 23 49.0
e 121 154 1.0
e 122 146 1.0
e 122 128 1.0
e 122 24 1.0
e 122 22 37.0
e 122 4 30.0
e 122 117 1.0
e 122 126 1.0
e 123 49 19.0
e 123 25 25.0
e 123 60 2.0
e 123 142 1.0
e 123 20 17.0
e 123 18 12.0
e 123 138 1.0
e 123 0 1.0
e 124 100 20.0
e 124 9 12.0
e 124 48 19.0
e 124 114 41.0
e 124 151 31.0
e 124 81 47.0
e 124 137 23.0
e 125 49 24.0
e 125 19 16.0
e 125 15 49.0
e 125 91 16.0
e 125 7 11.0
e 125 96 47.0
e 125 1 46.0
e 125 66 24.0
e 126 3 1.0
e 126 130 1.0
e 126 70 12.0
e 126 109 1.0
e 126 37 1.0
e 126 100 1.0
e 126 83 1.0
e 126 139 2.0
e 127 14 47.0
e 127 75 1.0
e 127 118 1.0
e 127 57 1.0
e 127 68 1.0
e 127 157 1.0
e 127 133 6.0
e 127 15 35.0
e 128 93 1.0
e 128 7 1.0
e 128 57 1.0
e 128 121 1.0
e 128 66 1.0
e 128 157 1.0
e 128 85 45.0
e 128 23 11.0
e 129 116 2.0
e 129 110 1.0
e 129 143 2.0
e 129 115 2.0
e 129 144 1.0
e 129 68 1.0
e 129 23 18.0
e 130 135 1.0
e 130 26 1.0
e 130 10 11.0
e 130 157 1.0
e 130 79 40.0
e 130 155 1.0
e 130 114 1.0
e 130 14 14.0
e 131 77 1.0
e 131 85 35.0
e 131 94 6.0
e 131 11 1.0
e 131 148 1.0
e 131 126 1.0
e 131 111 1.0
e 131 74 1.0
e 132 137 1.0
e 132 50 1.0
e 132 16 1.0
e 132 69 1.0
e 132 144 1.0
e 132 113 1.0
e 132 63 28.0
e 132 97 24.0
e 133 25 36.0
e 133 18 32.0
e 133 116 15.0
e 133 41 30.0
e 133 112 3.0
e 133 103 16.0
e 133 30 21.0
e 134 123 1.0
e 134 130 1.0
e 134 21 1.0
e 134 55 1.0
e 134 7 1.0
e 134 73 1.0
e 134 148 1.0
e 134 4 26.0
e 135 20 30.0
e 135 37 1.0
e 135 127 1.0
e 135 64 1.0
e 135 105 1.0
e 135 114 1.0
e 135 59 1.0
e 135 58 24.0
e 136 2 2.0
e 136 116 2.0
e 136 87 2.0
e 136 117 1.0
e 136 50 1.0
e 136 40 1.0
e 136 145 1.0
e 137 153 1.0
e 137 82 23.0
e 137 79 34.0
e 137 154 1.0
e 137 111 1.0
e 137 125 25.0
e 137 116 1.0
e 138 150 1.0
e 138 38 37.0
e 138 66 1.0
e 138 110 1.0
e 138 46 19.0
e 138 131 1.0
e 138 129 1.0
e 138 64 1.0
e 139 123 2.0
e 139 107 1.0
e 139 90 1.0
e 139 120 2.0
e 139 121 1.0
e 139 99 2.0
e 140 57 19.0
e 140 54 33.0
e 140 42 32.0
e 140 86 13.0
e 140 125 27.0
e 140 145 1.0
e 140 155 25.0
e 140 19 9.0
e 141 104 8.0
e 141 139 2.0
e 141 62 43.0
e 141 27 4.0
e 141 88 38.0
e 141 78 29.0
e 141 15 32.0
e 141 123 22.0
e 142 92 1.0
e 142 8 1.0
e 142 68 1.0
e 142 75 1.0
e 142 116 1.0
e 142 34 34.0
e 142 52 1.0
e 142 25 35.0
e 143 7 1.0
e 143 123 1.0
e 143 117 1.0
e 143 54 1.0
e 143 116 1.0
e 143 87 1.0
e 143 110 1.0
e 144 57 1.0
e 144 53 1.0
e 144 155 1.0
e 144 119 1.0
e 144 55 1.0
e 144 59 1.0
e 144 23 45.0
e 145 118 1.0
e 145 29 12.0
e 145 146 1.0
e 145 65 1.0
e 145 14 35.0
e 145 116 1.0
e 146 87 1.0
e 146 82 12.0
e 146 10 21.0
e 146 45 1.0
e 146 156 1.0
e 146 24 1.0
e 146 75 1.0
e 147 46 46.0
e 147 135 1.0
e 147 11 1.0
e 147 96 1.0
e 147 8 2.0
e 147 86 1.0
e 147 43 1.0
e 148 104 41.0
e 148 13 12.0
e 148 132 1.0
e 148 65 1.0
e 148 50 1.0
e 148 47 1.0
e 148 31 30.0
e 148 33 1.0
e 149 24 1.0
e 149 109 1.0
e 149 38 3.0
e 149 104 20.0
e 149 155 1.0
e 149 56 1.0
e 149 51 1.0
e 150 69 1.0
e 150 63 5.0
e 150 38 17.0
e 150 126 1.0
e 150 120 1.0
e 150 151 1.0
e 150 20 27.0
e 151 62 1.0
e 151 132 1.0
e 151 101 1.0
e 151 20 10.0
e 151 91 41.0
e 151 54 1.0
e 151 45 1.0
e 151 28 1.0
e 152 118 43.0
e 152 78 1.0
e 152 14 33.0
e 152 19 13.0
e 152 45 32.0
e 152 140 17.0
e 152 124 43.0
e 152 26 19.0
e 153 101 1.0
e 153 76 1.0
e 153 96 1.0
e 153 141 35.0
e 153 140 34.0
e 153 146 1.0
e 153 152 20.0
e 154 43 2.0
e 154 125 49.0
e 154 155 1.0
e 154 59 1.0
e 154 71 1.0
e 154 86 1.0
e 154 45 1.0
e 154 88 1.0
e 155 5 1.0
e 155 49 40.0
e 155 120 1.0
e 155 8 1.0
e 155 113 1.0
e 155 58 10.0
e 155 23 11.0
e 156 105 1.0
e 156 157 1.0
e 156 97 28.0
e 156 122 1.0
e 156 72 25.0
e 156 136 1.0
e 156 36 17.0
e 156 50 1.0
e 157 140 26.0
e 157 20 5.0
e 157 23 28.0
e 157 13 21.0
e 157 86 1.0
e 157 52 1.0
e 157 93 1.0
e 157 3 1.0
e 158 32 1.0
e 158 78 1.0
e 158 142 1.0
e 158 99 1.0
e 158 110 1.0
e 158 104 39.0
e 158 141 15.0
e 158 97 35.0
e 159 24 1.0
e 159 102 1.0
e 159 131 1.0
e 159 137 1.0
e 159 78 1.0
e 159 40 1.0
e 159 73 1.0
e 159 77 1.0
